cplex/simple.dat
data;

param n:=5;

param p:=2;

param C:=1.0;

param U:=
  1 0.181402270011
  2 0.140243283549
  3 0.519114788619
  4 0.0333442243098
  5 0.0329067835651
;
param BA:
	1	2	3	4	5	:=

1	0.0	0.0	0.181402270011	0.0	0.0
2	0.0	0.0	0.181402270011	0.0	0.0
3	0.0	0.0	0.115151262136	0.0333442243098	0.0329067835651
4	0.0	0.140243283549	0.0411589864616	0.0	0.0
5	0.0	0.0	0.0	0.0	0.0
;